
Gurobi 10.0.1 (mac64[arm]) logging started Fri Mar 29 16:03:59 2024

Set parameter LogFile to value "/Users/deniserings/Documents/zib/s-bahn-data/scripts/DeniseMA/processed/BPKW_BKRW_BSNF_O/original/LP_based/BPKW_BKRW_BSNF_O_subgradient_202403291545act_.log"
Gurobi Optimizer version 10.0.1 build v10.0.1rc0 (mac64[arm])

CPU model: Apple M2
Thread count: 8 physical cores, 8 logical processors, using up to 8 threads

Optimize a model with 4704 rows, 2461 columns and 17339 nonzeros
Model fingerprint: 0x16a7bee0
Variable types: 1131 continuous, 1330 integer (358 binary)
Coefficient statistics:
  Matrix range     [1e+00, 4e+02]
  Objective range  [1e+00, 4e+02]
  Bounds range     [1e+00, 2e+02]
  RHS range        [1e+00, 5e+02]
Found heuristic solution: objective 378.0000000
Presolve removed 4638 rows and 2275 columns
Presolve time: 0.03s
Presolved: 66 rows, 186 columns, 262 nonzeros
Variable types: 121 continuous, 65 integer (65 binary)

Explored 0 nodes (0 simplex iterations) in 0.03 seconds (0.03 work units)
Thread count was 8 (of 8 available processors)

Solution count 1: 378 

Optimal solution found (tolerance 1.00e-04)
Best objective 3.780000000000e+02, best bound 3.780000000000e+02, gap 0.0000%

User-callback calls 881, time in user-callback 0.00 sec

Statistics for modelBPKW_BKRW_BSNF_O:
  Linear constraint matrix    : 4704 Constrs, 2461 Vars, 17339 NZs
  Variable types              : 1131 Continuous,
1330 Integer (358 Binary)
  Matrix coefficient range    : [ 1, 368 ]
  Objective coefficient range : [ 1, 366 ]
  Variable bound range        : [ 1, 199 ]
  RHS coefficient range       : [ 1, 549 ]

Gurobi 10.0.1 (mac64[arm]) logging started Fri Mar 29 16:03:59 2024

Set parameter LogFile to value "/Users/deniserings/Documents/zib/s-bahn-data/scripts/DeniseMA/processed/BPKW_BKRW_BSNF_O/original/LP_based/BPKW_BKRW_BSNF_O_subgradient_202403291545act_.log"
Gurobi Optimizer version 10.0.1 build v10.0.1rc0 (mac64[arm])

CPU model: Apple M2
Thread count: 8 physical cores, 8 logical processors, using up to 8 threads

Optimize a model with 4802 rows, 2461 columns and 17603 nonzeros
Model fingerprint: 0xb6be59ea
Variable types: 1131 continuous, 1330 integer (358 binary)
Coefficient statistics:
  Matrix range     [1e+00, 4e+02]
  Objective range  [1e+00, 1e+04]
  Bounds range     [1e+00, 2e+02]
  RHS range        [1e+00, 5e+02]

User MIP start produced solution with objective 16596.3 (0.00s)
Loaded user MIP start with objective 16596.3

Presolve removed 2153 rows and 894 columns
Presolve time: 0.04s
Presolved: 2649 rows, 1567 columns, 11964 nonzeros
Found heuristic solution: objective 15040.150513
Variable types: 538 continuous, 1029 integer (1029 binary)

Root relaxation: objective 6.368795e+03, 678 iterations, 0.00 seconds (0.00 work units)

    Nodes    |    Current Node    |     Objective Bounds      |     Work
 Expl Unexpl |  Obj  Depth IntInf | Incumbent    BestBd   Gap | It/Node Time

     0     0 6368.79467    0   48 15040.1505 6368.79467  57.7%     -    0s
H    0     0                    9941.7768862 6368.79467  35.9%     -    0s
H    0     0                    8112.9911101 6368.79467  21.5%     -    0s
H    0     0                    7974.5908138 6368.79467  20.1%     -    0s
     0     0 6368.79467    0   94 7974.59081 6368.79467  20.1%     -    0s
H    0     0                    7875.3914064 6368.79467  19.1%     -    0s
     0     0 6368.79467    0  105 7875.39141 6368.79467  19.1%     -    0s
H    0     0                    7781.3928881 6368.79467  18.2%     -    0s
     0     0 6368.79467    0   29 7781.39289 6368.79467  18.2%     -    0s
H    0     0                    7757.5937771 6368.79467  17.9%     -    0s
     0     0 6368.79467    0   73 7757.59378 6368.79467  17.9%     -    0s
H    0     0                    7737.3928881 6368.79467  17.7%     -    0s
     0     0 6368.79467    0   28 7737.39289 6368.79467  17.7%     -    0s
H    0     0                    7274.7931844 6368.79467  12.5%     -    0s
     0     0 6368.79467    0   25 7274.79318 6368.79467  12.5%     -    0s
     0     0 6368.79467    0   28 7274.79318 6368.79467  12.5%     -    0s
H    0     0                    7147.3928881 6368.79467  10.9%     -    0s
H    0     0                    6986.9925917 6368.79467  8.85%     -    0s
     0     0 6368.79467    0   50 6986.99259 6368.79467  8.85%     -    0s
     0     0 6368.79467    0   19 6986.99259 6368.79467  8.85%     -    0s
     0     0 6368.79467    0   54 6986.99259 6368.79467  8.85%     -    0s
H    0     0                    6852.7917028 6368.79467  7.06%     -    0s
H    0     0                    6809.1919991 6368.79467  6.47%     -    0s
     0     0 6368.79467    0   29 6809.19200 6368.79467  6.47%     -    0s
     0     0 6368.79467    0   25 6809.19200 6368.79467  6.47%     -    0s
     0     0 6368.79467    0   15 6809.19200 6368.79467  6.47%     -    0s
     0     0 6368.79467    0   19 6809.19200 6368.79467  6.47%     -    0s
H    0     0                    6775.5922954 6368.79467  6.00%     -    0s
     0     0 6368.79467    0   11 6775.59230 6368.79467  6.00%     -    0s
     0     0 6368.79467    0   10 6775.59230 6368.79467  6.00%     -    0s
     0     0 6368.79467    0   10 6775.59230 6368.79467  6.00%     -    0s
     0     0 6368.79467    0   10 6775.59230 6368.79467  6.00%     -    0s
H    0     2                    6773.9940734 6368.79467  5.98%     -    0s
     0     2 6368.79467    0   10 6773.99407 6368.79467  5.98%     -    0s
H   37    40                    6719.5937771 6368.79467  5.22%  53.3    0s
H  103   135                    6717.1934807 6368.79467  5.19%  71.3    1s
H  106   135                    6575.3928881 6368.79467  3.14%  70.1    1s
H  237   249                    6514.7931844 6368.79467  2.24%  52.2    1s
H  281   452                    6498.7931844 6368.79467  2.00%  49.2    1s
H  504   626                    6494.7931844 6368.79467  1.94%  41.0    1s
H  509   626                    6419.9940734 6368.79467  0.80%  40.7    1s
H  690   704                    6391.9940734 6368.79467  0.36%  36.8    1s
H 2534  1284                    6390.3943697 6390.39437  0.00%  30.7    4s

Cutting planes:
  Learned: 4
  Gomory: 29
  Cover: 56
  Implied bound: 50
  Clique: 39
  MIR: 17
  StrongCG: 3
  Flow cover: 70
  Network: 4
  RLT: 8
  Relax-and-lift: 8

Explored 2534 nodes (87936 simplex iterations) in 4.35 seconds (3.10 work units)
Thread count was 8 (of 8 available processors)

Solution count 10: 6390.39 6391.99 6419.99 ... 6773.99

Optimal solution found (tolerance 1.00e-04)
Best objective 6.390394369727e+03, best bound 6.390394369727e+03, gap 0.0000%

User-callback calls 7084, time in user-callback 0.01 sec

Statistics for modelBPKW_BKRW_BSNF_O:
  Linear constraint matrix    : 4802 Constrs, 2461 Vars, 17603 NZs
  Variable types              : 1131 Continuous,
1330 Integer (358 Binary)
  Matrix coefficient range    : [ 1, 368 ]
  Objective coefficient range : [ 1, 10527.8 ]
  Variable bound range        : [ 1, 199 ]
  RHS coefficient range       : [ 1, 549 ]

Gurobi 10.0.1 (mac64[arm]) logging started Fri Mar 29 16:04:03 2024

Set parameter LogFile to value "/Users/deniserings/Documents/zib/s-bahn-data/scripts/DeniseMA/processed/BPKW_BKRW_BSNF_O/original/LP_based/BPKW_BKRW_BSNF_O_subgradient_202403291545act_.log"
Gurobi Optimizer version 10.0.1 build v10.0.1rc0 (mac64[arm])

CPU model: Apple M2
Thread count: 8 physical cores, 8 logical processors, using up to 8 threads

Optimize a model with 4977 rows, 2461 columns and 18000 nonzeros
Model fingerprint: 0xfe3b0185
Variable types: 1131 continuous, 1330 integer (358 binary)
Coefficient statistics:
  Matrix range     [1e+00, 4e+02]
  Objective range  [1e+00, 1e+04]
  Bounds range     [1e+00, 2e+02]
  RHS range        [1e+00, 5e+02]

User MIP start produced solution with objective 10583.9 (0.00s)
Loaded user MIP start with objective 10583.9

Presolve removed 2710 rows and 1136 columns
Presolve time: 0.10s
Presolved: 2267 rows, 1325 columns, 9179 nonzeros
Found heuristic solution: objective 10320.695902
Variable types: 434 continuous, 891 integer (891 binary)

Root relaxation: objective 8.467088e+03, 667 iterations, 0.00 seconds (0.00 work units)

    Nodes    |    Current Node    |     Objective Bounds      |     Work
 Expl Unexpl |  Obj  Depth IntInf | Incumbent    BestBd   Gap | It/Node Time

     0     0 8467.08841    0   64 10320.6959 8467.08841  18.0%     -    0s
H    0     0                    10278.382842 8467.08841  17.6%     -    0s
     0     0 8499.04984    0  125 10278.3828 8499.04984  17.3%     -    0s
     0     0 8507.83596    0  138 10278.3828 8507.83596  17.2%     -    0s
     0     0 8507.83596    0  135 10278.3828 8507.83596  17.2%     -    0s
     0     0 8617.44374    0  156 10278.3828 8617.44374  16.2%     -    0s
H    0     0                    10175.130601 8624.48497  15.2%     -    0s
H    0     0                    9685.5044809 8624.48497  11.0%     -    0s
     0     0 8635.73287    0  139 9685.50448 8635.73287  10.8%     -    0s
     0     0 8829.60939    0  157 9685.50448 8829.60939  8.84%     -    0s
     0     0 8829.60939    0  126 9685.50448 8829.60939  8.84%     -    0s
     0     0 8829.60939    0  115 9685.50448 8829.60939  8.84%     -    0s
     0     0 8857.56530    0   89 9685.50448 8857.56530  8.55%     -    0s
     0     0 8857.56530    0  125 9685.50448 8857.56530  8.55%     -    0s
     0     0 8860.88209    0  124 9685.50448 8860.88209  8.51%     -    0s
     0     0 8860.88704    0  136 9685.50448 8860.88704  8.51%     -    0s
     0     0 8863.62780    0  135 9685.50448 8863.62780  8.49%     -    0s
     0     0 8864.24911    0  133 9685.50448 8864.24911  8.48%     -    0s
     0     0 8864.24911    0  154 9685.50448 8864.24911  8.48%     -    0s
     0     0 8870.65849    0  183 9685.50448 8870.65849  8.41%     -    0s
     0     0 8871.08115    0  200 9685.50448 8871.08115  8.41%     -    0s
     0     0 8871.08115    0  197 9685.50448 8871.08115  8.41%     -    0s
     0     0 8871.17831    0  199 9685.50448 8871.17831  8.41%     -    0s
     0     0 8871.17831    0  199 9685.50448 8871.17831  8.41%     -    0s
     0     0 8871.17831    0  180 9685.50448 8871.17831  8.41%     -    0s
     0     0 8871.17831    0   96 9685.50448 8871.17831  8.41%     -    0s
     0     2 8871.17831    0   65 9685.50448 8871.17831  8.41%     -    0s
H  126   142                    9668.5044809 8873.56530  8.22%  29.3    0s
H  184   186                    9656.8175411 8873.56530  8.11%  26.4    0s
H  190   186                    9611.8783607 8873.56530  7.68%  26.0    0s
H  407   446                    9600.1914208 8873.56530  7.57%  19.2    0s
H  915   895                    9595.1914208 8873.56530  7.52%  17.7    0s
H 1227  1125                    9569.1914208 8873.56530  7.27%  16.5    0s
H 1750  1415                    9555.8783607 8877.56530  7.10%  23.0    3s
H 1770  1362                    9550.8783607 8877.56530  7.05%  23.0    3s
H 1773  1299                    9537.8783607 8877.56530  6.92%  23.2    3s
H 1794  1260                    9504.8783607 8877.56530  6.60%  23.1    3s
H 1797  1203                    9362.8783607 8877.56530  5.18%  23.1    3s
H 1822  1142                    9329.8783607 8877.56530  4.85%  23.1    3s
H 1827  1103                    9314.8783607 8877.56530  4.69%  23.1    3s
H 1828  1055                    9288.8783607 8877.56530  4.43%  23.1    3s
H 1829  1009                    9288.8783355 8877.56530  4.43%  23.1    3s
H 2084  1052                    9287.5653006 8877.56530  4.41%  22.9    3s
H 2087  1010                    9283.8783607 8877.56530  4.38%  22.9    3s
H 2695  1163                    9280.8783607 8877.56530  4.35%  24.0    4s
  3794  1541 9110.22569   44   78 9280.87836 8877.56530  4.35%  25.8    5s

Cutting planes:
  Learned: 14
  Gomory: 69
  Cover: 71
  Implied bound: 17
  Clique: 2
  MIR: 47
  StrongCG: 10
  Flow cover: 166
  GUB cover: 1
  Zero half: 2
  Network: 5
  RLT: 6
  Relax-and-lift: 11

Explored 3912 nodes (107029 simplex iterations) in 5.05 seconds (3.83 work units)
Thread count was 8 (of 8 available processors)

Solution count 10: 9280.88 9283.88 9287.57 ... 9537.88

Solve interrupted
Best objective 9.280878360700e+03, best bound 8.877565300584e+03, gap 4.3456%

User-callback calls 10079, time in user-callback 0.02 sec

Statistics for modelBPKW_BKRW_BSNF_O:
  Linear constraint matrix    : 4977 Constrs, 2461 Vars, 18000 NZs
  Variable types              : 1131 Continuous,
1330 Integer (358 Binary)
  Matrix coefficient range    : [ 1, 368 ]
  Objective coefficient range : [ 1, 12293.5 ]
  Variable bound range        : [ 1, 199 ]
  RHS coefficient range       : [ 1, 549 ]

Gurobi 10.0.1 (mac64[arm]) logging started Fri Mar 29 16:04:09 2024

Set parameter LogFile to value "/Users/deniserings/Documents/zib/s-bahn-data/scripts/DeniseMA/processed/BPKW_BKRW_BSNF_O/original/LP_based/BPKW_BKRW_BSNF_O_subgradient_202403291545act_.log"
Gurobi Optimizer version 10.0.1 build v10.0.1rc0 (mac64[arm])

CPU model: Apple M2
Thread count: 8 physical cores, 8 logical processors, using up to 8 threads

Optimize a model with 4990 rows, 2461 columns and 18026 nonzeros
Model fingerprint: 0x96816028
Variable types: 1131 continuous, 1330 integer (358 binary)
Coefficient statistics:
  Matrix range     [1e+00, 4e+02]
  Objective range  [1e+00, 1e+04]
  Bounds range     [1e+00, 2e+02]
  RHS range        [1e+00, 5e+02]

User MIP start produced solution with objective 7693.46 (0.00s)
Loaded user MIP start with objective 7693.46

Presolve removed 2869 rows and 1274 columns
Presolve time: 0.07s
Presolved: 2121 rows, 1187 columns, 8916 nonzeros
Variable types: 401 continuous, 786 integer (786 binary)

Root relaxation: objective 7.284464e+03, 534 iterations, 0.00 seconds (0.00 work units)

    Nodes    |    Current Node    |     Objective Bounds      |     Work
 Expl Unexpl |  Obj  Depth IntInf | Incumbent    BestBd   Gap | It/Node Time

     0     0 7284.46415    0   27 7693.46415 7284.46415  5.32%     -    0s
     0     0 7284.46415    0   89 7693.46415 7284.46415  5.32%     -    0s
     0     0 7284.46415    0   85 7693.46415 7284.46415  5.32%     -    0s
     0     0 7284.46415    0   83 7693.46415 7284.46415  5.32%     -    0s
     0     0 7284.46415    0   21 7693.46415 7284.46415  5.32%     -    0s
     0     0 7284.46415    0   23 7693.46415 7284.46415  5.32%     -    0s
     0     0 7284.46415    0   14 7693.46415 7284.46415  5.32%     -    0s
     0     0 7284.46415    0   35 7693.46415 7284.46415  5.32%     -    0s
     0     0 7284.46415    0   27 7693.46415 7284.46415  5.32%     -    0s
     0     0 7284.46415    0   28 7693.46415 7284.46415  5.32%     -    0s
     0     0 7284.46415    0   32 7693.46415 7284.46415  5.32%     -    0s
     0     0 7284.46415    0   47 7693.46415 7284.46415  5.32%     -    0s
     0     0 7284.46415    0   22 7693.46415 7284.46415  5.32%     -    0s
     0     0 7284.46415    0   22 7693.46415 7284.46415  5.32%     -    0s
     0     2 7284.46415    0   22 7693.46415 7284.46415  5.32%     -    0s
  1606  1231 7486.46415   21   89 7693.46415 7350.79915  4.45%  30.7    5s

Cutting planes:
  Learned: 6
  Gomory: 21
  Cover: 22
  Implied bound: 2
  Clique: 1
  MIR: 18
  StrongCG: 3
  Flow cover: 36
  Network: 3
  RLT: 5
  Relax-and-lift: 5

Explored 1606 nodes (55126 simplex iterations) in 5.07 seconds (3.40 work units)
Thread count was 8 (of 8 available processors)

Solution count 1: 7693.46 

Solve interrupted
Best objective 7.693464151244e+03, best bound 7.350799148012e+03, gap 4.4540%

User-callback calls 5770, time in user-callback 0.01 sec

Statistics for modelBPKW_BKRW_BSNF_O:
  Linear constraint matrix    : 4990 Constrs, 2461 Vars, 18026 NZs
  Variable types              : 1131 Continuous,
1330 Integer (358 Binary)
  Matrix coefficient range    : [ 1, 368 ]
  Objective coefficient range : [ 1, 11499.8 ]
  Variable bound range        : [ 1, 199 ]
  RHS coefficient range       : [ 1, 549 ]

Gurobi 10.0.1 (mac64[arm]) logging started Fri Mar 29 16:04:14 2024

Set parameter LogFile to value "/Users/deniserings/Documents/zib/s-bahn-data/scripts/DeniseMA/processed/BPKW_BKRW_BSNF_O/original/LP_based/BPKW_BKRW_BSNF_O_subgradient_202403291545act_.log"
Gurobi Optimizer version 10.0.1 build v10.0.1rc0 (mac64[arm])

CPU model: Apple M2
Thread count: 8 physical cores, 8 logical processors, using up to 8 threads

Optimize a model with 4990 rows, 2461 columns and 18026 nonzeros
Model fingerprint: 0xc50f3b07
Variable types: 1131 continuous, 1330 integer (358 binary)
Coefficient statistics:
  Matrix range     [1e+00, 4e+02]
  Objective range  [1e+00, 2e+04]
  Bounds range     [1e+00, 2e+02]
  RHS range        [1e+00, 5e+02]

User MIP start produced solution with objective 25155 (0.00s)
Loaded user MIP start with objective 25155

Presolve removed 2869 rows and 1274 columns
Presolve time: 0.16s
Presolved: 2121 rows, 1187 columns, 8916 nonzeros
Found heuristic solution: objective 14873.006818
Variable types: 401 continuous, 786 integer (786 binary)

Root relaxation: objective 9.174000e+03, 539 iterations, 0.00 seconds (0.00 work units)

    Nodes    |    Current Node    |     Objective Bounds      |     Work
 Expl Unexpl |  Obj  Depth IntInf | Incumbent    BestBd   Gap | It/Node Time

     0     0 9174.00000    0   26 14873.0068 9174.00000  38.3%     -    0s
H    0     0                    12320.003409 9174.00000  25.5%     -    0s
     0     0 9176.33677    0   73 12320.0034 9176.33677  25.5%     -    0s
H    0     0                    12305.003409 9176.33677  25.4%     -    0s
H    0     0                    12276.003409 9176.33677  25.2%     -    0s
     0     0 9176.33677    0   82 12276.0034 9176.33677  25.2%     -    0s
H    0     0                    11616.000000 9176.33677  21.0%     -    0s
H    0     0                    10092.000000 9211.00000  8.73%     -    0s
     0     0 9211.00000    0  127 10092.0000 9211.00000  8.73%     -    0s
     0     0 9214.00000    0  116 10092.0000 9214.00000  8.70%     -    0s
H    0     0                    10057.000000 9214.00000  8.38%     -    0s
     0     0 9214.00000    0  120 10057.0000 9214.00000  8.38%     -    0s
     0     0 9214.00000    0   37 10057.0000 9214.00000  8.38%     -    0s
     0     0 9214.00000    0   40 10057.0000 9214.00000  8.38%     -    0s
H    0     0                    10037.000000 9214.00000  8.20%     -    0s
     0     0 9214.00000    0   14 10037.0000 9214.00000  8.20%     -    0s
H    0     0                    10020.000000 9214.00000  8.04%     -    0s
     0     0 9214.00000    0   15 10020.0000 9214.00000  8.04%     -    0s
     0     0 9214.00000    0   18 10020.0000 9214.00000  8.04%     -    0s
     0     0 9214.00000    0   18 10020.0000 9214.00000  8.04%     -    0s
     0     0 9214.00000    0   16 10020.0000 9214.00000  8.04%     -    0s
     0     0 9214.00000    0   14 10020.0000 9214.00000  8.04%     -    0s
     0     0 9214.00000    0   47 10020.0000 9214.00000  8.04%     -    0s
     0     0 9214.00000    0   65 10020.0000 9214.00000  8.04%     -    0s
     0     0 9214.00000    0   65 10020.0000 9214.00000  8.04%     -    0s
     0     0 9214.00000    0   88 10020.0000 9214.00000  8.04%     -    0s
     0     0 9214.00000    0   67 10020.0000 9214.00000  8.04%     -    0s
     0     0 9214.00000    0   21 10020.0000 9214.00000  8.04%     -    0s
     0     0 9214.00000    0   24 10020.0000 9214.00000  8.04%     -    0s
H    0     0                    9946.0000000 9214.00000  7.36%     -    0s
     0     0 9214.00000    0   16 9946.00000 9214.00000  7.36%     -    0s
     0     0 9214.00000    0   18 9946.00000 9214.00000  7.36%     -    0s
H    0     0                    9922.0000000 9214.00000  7.14%     -    0s
     0     0 9214.00000    0   21 9922.00000 9214.00000  7.14%     -    0s
     0     0 9214.00000    0   26 9922.00000 9214.00000  7.14%     -    0s
     0     0 9214.00000    0   23 9922.00000 9214.00000  7.14%     -    0s
     0     0 9214.00000    0   19 9922.00000 9214.00000  7.14%     -    0s
     0     2 9214.00000    0   19 9922.00000 9214.00000  7.14%     -    0s
H  614   673                    9911.0000000 9214.00000  7.03%  20.3    1s
H  782   732                    9895.0000000 9214.00000  6.88%  19.3    1s
H  784   729                    9865.0000000 9214.00000  6.60%  19.4    1s
H  811   729                    9861.0000000 9214.00000  6.56%  19.6    1s
H  866   841                    9812.0000000 9214.00000  6.09%  19.3    1s
H 1369  1144                    9807.0000000 9214.00000  6.05%  18.9    1s
H 1578  1097                    9802.0000000 9224.00000  5.90%  18.7    2s
H 1580  1043                    9801.0000000 9224.32066  5.88%  18.6    2s
H 1629  1022                    9799.0000000 9246.66667  5.64%  23.0    4s
H 1636   975                    9788.0000000 9246.66667  5.53%  27.2    4s
H 1641   930                    9783.0000000 9246.66667  5.48%  27.1    4s
  1648   934 9309.00000   30   76 9783.00000 9247.79158  5.47%  27.0    5s

Cutting planes:
  Learned: 18
  Gomory: 39
  Cover: 21
  Implied bound: 2
  Clique: 2
  MIR: 34
  StrongCG: 2
  Flow cover: 129
  Network: 1
  RLT: 4
  Relax-and-lift: 3

Explored 1648 nodes (53790 simplex iterations) in 5.03 seconds (3.36 work units)
Thread count was 8 (of 8 available processors)

Solution count 10: 9783 9788 9799 ... 9895

Solve interrupted
Best objective 9.783000000000e+03, best bound 9.247791576974e+03, gap 5.4708%

User-callback calls 6289, time in user-callback 0.01 sec

Statistics for modelBPKW_BKRW_BSNF_O:
  Linear constraint matrix    : 4990 Constrs, 2461 Vars, 18026 NZs
  Variable types              : 1131 Continuous,
1330 Integer (358 Binary)
  Matrix coefficient range    : [ 1, 368 ]
  Objective coefficient range : [ 1, 20230.5 ]
  Variable bound range        : [ 1, 199 ]
  RHS coefficient range       : [ 1, 549 ]
